(set-logic QF_SLIA)
(declare-const S String)
(assert (not (str.in_re S (re.union (str.to_re "!{*VMJE89") re.allchar))))
(assert (str.in_re S (re.++ re.allchar (re.union (str.to_re "-") (re.++ (str.to_re "MMM") re.allchar)))))
(check-sat)
